(assert (forall ((pkt_0_4_6_0  Int  )(state_group_0_state_0_5_7_0  Int  )(state_group_0_state_1_6_8_0  Int  )) (let ((_n0 state_group_0_state_1_6_8_0 ))
(let ((_n1 state_group_0_state_0_5_7_0 ))
(let ((_n2 true ))
(let ((_n3 (+   _n1   (ite  _n2  1 0) ) ))
(let ((_n4 (ite (=  _n0  0)  _n3   _n1  ) ))
(let ((_n5 (<   _n0   (ite  _n2  1 0) ) ))
(let ((_n6 998 ))
(let ((_n7 false ))
(let ((_n8 (ite  _n5   (ite  _n7  1 0)   _n0  ) ))
(let ((_n9 (=   _n8   _n6 ) ))
(let ((_n10 (ite  _n5   _n7   _n9  ) ))
(let ((_n11 (not  _n10 ) ))
(let ((_n12 (or   _n11   _n5 ) ))
(let ((_n13 (ite  _n12   (ite  _n7  1 0)   _n1  ) ))
(let ((_n14 (=   _n13   _n6 ) ))
(let ((_n15 (ite  _n12   _n7   _n14  ) ))
(let ((_n16 (or   _n15   _n12 ) ))
(let ((_n17 1001 ))
(let ((_n18 (ite  _n16   (ite  _n7  1 0)   _n17  ) ))
(let ((_n19 2 ))
(let ((_n20 (ite  _n16   (ite  _n7  1 0)   _n19  ) ))
(let ((_n21 (+   _n20   _n18 ) ))
(let ((_n22 (ite  _n16   (ite  _n7  1 0)   _n21  ) ))
(let ((_n23 (+   _n1   _n22 ) ))
(let ((_n24 (not  _n15 ) ))
(let ((_n25 (or   _n24   _n12 ) ))
(let ((_n26 4 ))
(let ((_n27 (ite  _n25   (ite  _n7  1 0)   _n26  ) ))
(let ((_n28 (+   _n27   _n27 ) ))
(let ((_n29 (ite  _n25   (ite  _n7  1 0)   _n28  ) ))
(let ((_n30 (+   _n1   _n29 ) ))
(let ((_n31 (ite (=  (ite  _n15  1 0)  1)  _n30   _n23  ) ))
(let ((_n32 (ite (=  (ite  _n10  1 0)  1)  _n31   _n1  ) ))
(let ((_n33 pkt_0_4_6_0 ))
(let ((_n34 (ite  _n5   _n33   (ite  _n7  1 0)  ) ))
(let ((_n35 (<   _n34   _n6 ) ))
(let ((_n36 (and   _n5   _n35 ) ))
(let ((_n37 (not  _n5 ) ))
(let ((_n38 (or   _n36   _n37 ) ))
(let ((_n39 1000 ))
(let ((_n40 (ite  _n38   (ite  _n7  1 0)   _n39  ) ))
(let ((_n41 (ite  _n38   _n1   (ite  _n7  1 0)  ) ))
(let ((_n42 (+   _n41   _n40 ) ))
(let ((_n43 (and   _n36   _n5 ) ))
(let ((_n44 (+   _n1   (ite  _n43  1 0) ) ))
(let ((_n45 (ite (=  (ite  _n36  1 0)  1)  _n44   _n42  ) ))
(let ((_n46 (ite (=  (ite  _n5  1 0)  1)  _n45   _n32  ) ))
(let ((_n47 (=   _n46   _n4 ) ))
(let ((_n49 (ite (=  _n1  999)  (ite  _n2  1 0)   _n0  ) ))
(let ((_n50 (ite (=  _n0  0)  _n49   _n0  ) ))
(let ((_n51 (+   _n18   _n18 ) ))
(let ((_n52 (ite  _n16   (ite  _n7  1 0)   _n51  ) ))
(let ((_n53 (+   _n0   _n52 ) ))
(let ((_n54 (ite  _n25   (ite  _n7  1 0)   _n6  ) ))
(let ((_n55 (+   _n54   _n27 ) ))
(let ((_n56 (ite  _n25   (ite  _n7  1 0)   _n55  ) ))
(let ((_n57 (+   _n0   _n56 ) ))
(let ((_n58 (ite (=  (ite  _n15  1 0)  1)  _n57   _n53  ) ))
(let ((_n59 (ite (=  (ite  _n10  1 0)  1)  _n58   _n0  ) ))
(let ((_n60 (not  _n38 ) ))
(let ((_n61 (+   _n0   (ite  _n60  1 0) ) ))
(let ((_n62 (ite (=  (ite  _n36  1 0)  1)  _n0   _n61  ) ))
(let ((_n63 (ite (=  (ite  _n5  1 0)  1)  _n62   _n59  ) ))
(let ((_n64 (=   _n63   _n50 ) ))
(let ((_n66 (ite (=  _n33  0)  (ite  _n7  1 0)   _n33  ) ))
(let ((_n67 (=   _n66   _n33 ) ))
(implies  (and (and (>= state_group_0_state_1_6_8_0 0) (< state_group_0_state_1_6_8_0 1024 ))  (and (and (>= state_group_0_state_0_5_7_0 0) (< state_group_0_state_0_5_7_0 1024 ))  (and (>= pkt_0_4_6_0 0) (< pkt_0_4_6_0 1024 )) ) )   (and  _n47  _n64  _n67 )  )))))))))))))))))))))))))))))))))))))))))))))))))))))))))))))))))))))
(check-sat)
(get-model)
(exit)